\ LP format - for model browsing. Use MPS format to capture full model detail.
Minimize
  sp(0) + 200 yp(0) + 0.2 sr(0) + 200 yr(0) + sp(1) + 200 yp(1) + 0.2 sr(1)
   + 200 yr(1) + sp(2) + 200 yp(2) + 0.2 sr(2) + 200 yr(2) + sp(3)
   + 200 yp(3) + 0.2 sr(3) + 200 yr(3) + sp(4) + 200 yp(4) + 0.2 sr(4)
   + 200 yr(4) + sp(5) + 200 yp(5) + 0.2 sr(5) + 200 yr(5) + sp(6)
   + 200 yp(6) + 0.2 sr(6) + 200 yr(6) + sp(7) + 200 yp(7) + 0.2 sr(7)
   + 200 yr(7) + sp(8) + 200 yp(8) + 0.2 sr(8) + 200 yr(8) + sp(9)
   + 200 yp(9) + 0.2 sr(9) + 200 yr(9) + sp(10) + 200 yp(10) + 0.2 sr(10)
   + 200 yr(10) + sp(11) + 200 yp(11) + 0.2 sr(11) + 200 yr(11) + sp(12)
   + 200 yp(12) + 0.2 sr(12) + 200 yr(12) + sp(13) + 200 yp(13)
   + 0.2 sr(13) + 200 yr(13) + sp(14) + 200 yp(14) + 0.2 sr(14)
   + 200 yr(14) + sp(15) + 200 yp(15) + 0.2 sr(15) + 200 yr(15) + sp(16)
   + 200 yp(16) + 0.2 sr(16) + 200 yr(16) + sp(17) + 200 yp(17)
   + 0.2 sr(17) + 200 yr(17) + sp(18) + 200 yp(18) + 0.2 sr(18)
   + 200 yr(18) + sp(19) + 200 yp(19) + 0.2 sr(19) + 200 yr(19) + sp(20)
   + 200 yp(20) + 0.2 sr(20) + 200 yr(20) + sp(21) + 200 yp(21)
   + 0.2 sr(21) + 200 yr(21) + sp(22) + 200 yp(22) + 0.2 sr(22)
   + 200 yr(22) + sp(23) + 200 yp(23) + 0.2 sr(23) + 200 yr(23) + sp(24)
   + 200 yp(24) + 0.2 sr(24) + 200 yr(24) + sp(25) + 200 yp(25)
   + 0.2 sr(25) + 200 yr(25) + sp(26) + 200 yp(26) + 0.2 sr(26)
   + 200 yr(26) + sp(27) + 200 yp(27) + 0.2 sr(27) + 200 yr(27) + sp(28)
   + 200 yp(28) + 0.2 sr(28) + 200 yr(28) + sp(29) + 200 yp(29)
   + 0.2 sr(29) + 200 yr(29) + sp(30) + 200 yp(30) + 0.2 sr(30)
   + 200 yr(30) + sp(31) + 200 yp(31) + 0.2 sr(31) + 200 yr(31) + sp(32)
   + 200 yp(32) + 0.2 sr(32) + 200 yr(32) + sp(33) + 200 yp(33)
   + 0.2 sr(33) + 200 yr(33) + sp(34) + 200 yp(34) + 0.2 sr(34)
   + 200 yr(34) + sp(35) + 200 yp(35) + 0.2 sr(35) + 200 yr(35) + sp(36)
   + 200 yp(36) + 0.2 sr(36) + 200 yr(36) + sp(37) + 200 yp(37)
   + 0.2 sr(37) + 200 yr(37) + sp(38) + 200 yp(38) + 0.2 sr(38)
   + 200 yr(38) + sp(39) + 200 yp(39) + 0.2 sr(39) + 200 yr(39) + sp(40)
   + 200 yp(40) + 0.2 sr(40) + 200 yr(40) + sp(41) + 200 yp(41)
   + 0.2 sr(41) + 200 yr(41) + sp(42) + 200 yp(42) + 0.2 sr(42)
   + 200 yr(42) + sp(43) + 200 yp(43) + 0.2 sr(43) + 200 yr(43) + sp(44)
   + 200 yp(44) + 0.2 sr(44) + 200 yr(44) + sp(45) + 200 yp(45)
   + 0.2 sr(45) + 200 yr(45) + sp(46) + 200 yp(46) + 0.2 sr(46)
   + 200 yr(46) + sp(47) + 200 yp(47) + 0.2 sr(47) + 200 yr(47) + sp(48)
   + 200 yp(48) + 0.2 sr(48) + 200 yr(48) + sp(49) + 200 yp(49)
   + 0.2 sr(49) + 200 yr(49) + sp(50) + 200 yp(50) + 0.2 sr(50)
   + 200 yr(50) + sp(51) + 200 yp(51) + 0.2 sr(51) + 200 yr(51)
Subject To
 R0: - sp(0) + xp(0) + xr(0) = 87
 R1: sp(0) - sp(1) + xp(1) + xr(1) = 110
 R2: sp(1) - sp(2) + xp(2) + xr(2) = 98
 R3: sp(2) - sp(3) + xp(3) + xr(3) = 111
 R4: sp(3) - sp(4) + xp(4) + xr(4) = 112
 R5: sp(4) - sp(5) + xp(5) + xr(5) = 130
 R6: sp(5) - sp(6) + xp(6) + xr(6) = 103
 R7: sp(6) - sp(7) + xp(7) + xr(7) = 102
 R8: sp(7) - sp(8) + xp(8) + xr(8) = 93
 R9: sp(8) - sp(9) + xp(9) + xr(9) = 108
 R10: sp(9) - sp(10) + xp(10) + xr(10) = 108
 R11: sp(10) - sp(11) + xp(11) + xr(11) = 101
 R12: sp(11) - sp(12) + xp(12) + xr(12) = 87
 R13: sp(12) - sp(13) + xp(13) + xr(13) = 83
 R14: sp(13) - sp(14) + xp(14) + xr(14) = 99
 R15: sp(14) - sp(15) + xp(15) + xr(15) = 105
 R16: sp(15) - sp(16) + xp(16) + xr(16) = 93
 R17: sp(16) - sp(17) + xp(17) + xr(17) = 95
 R18: sp(17) - sp(18) + xp(18) + xr(18) = 94
 R19: sp(18) - sp(19) + xp(19) + xr(19) = 102
 R20: sp(19) - sp(20) + xp(20) + xr(20) = 102
 R21: sp(20) - sp(21) + xp(21) + xr(21) = 94
 R22: sp(21) - sp(22) + xp(22) + xr(22) = 94
 R23: sp(22) - sp(23) + xp(23) + xr(23) = 94
 R24: sp(23) - sp(24) + xp(24) + xr(24) = 102
 R25: sp(24) - sp(25) + xp(25) + xr(25) = 84
 R26: sp(25) - sp(26) + xp(26) + xr(26) = 92
 R27: sp(26) - sp(27) + xp(27) + xr(27) = 78
 R28: sp(27) - sp(28) + xp(28) + xr(28) = 119
 R29: sp(28) - sp(29) + xp(29) + xr(29) = 74
 R30: sp(29) - sp(30) + xp(30) + xr(30) = 101
 R31: sp(30) - sp(31) + xp(31) + xr(31) = 96
 R32: sp(31) - sp(32) + xp(32) + xr(32) = 104
 R33: sp(32) - sp(33) + xp(33) + xr(33) = 97
 R34: sp(33) - sp(34) + xp(34) + xr(34) = 100
 R35: sp(34) - sp(35) + xp(35) + xr(35) = 90
 R36: sp(35) - sp(36) + xp(36) + xr(36) = 78
 R37: sp(36) - sp(37) + xp(37) + xr(37) = 100
 R38: sp(37) - sp(38) + xp(38) + xr(38) = 116
 R39: sp(38) - sp(39) + xp(39) + xr(39) = 108
 R40: sp(39) - sp(40) + xp(40) + xr(40) = 88
 R41: sp(40) - sp(41) + xp(41) + xr(41) = 106
 R42: sp(41) - sp(42) + xp(42) + xr(42) = 102
 R43: sp(42) - sp(43) + xp(43) + xr(43) = 116
 R44: sp(43) - sp(44) + xp(44) + xr(44) = 110
 R45: sp(44) - sp(45) + xp(45) + xr(45) = 121
 R46: sp(45) - sp(46) + xp(46) + xr(46) = 100
 R47: sp(46) - sp(47) + xp(47) + xr(47) = 91
 R48: sp(47) - sp(48) + xp(48) + xr(48) = 98
 R49: sp(48) - sp(49) + xp(49) + xr(49) = 90
 R50: sp(49) - sp(50) + xp(50) + xr(50) = 104
 R51: sp(50) + xp(51) + xr(51) = 105
 R52: - sr(0) - xr(0) = -20
 R53: sr(0) - sr(1) - xr(1) = -20
 R54: sr(1) - sr(2) - xr(2) = -31
 R55: sr(2) - sr(3) - xr(3) = -23
 R56: sr(3) - sr(4) - xr(4) = -22
 R57: sr(4) - sr(5) - xr(5) = -29
 R58: sr(5) - sr(6) - xr(6) = -27
 R59: sr(6) - sr(7) - xr(7) = -30
 R60: sr(7) - sr(8) - xr(8) = -20
 R61: sr(8) - sr(9) - xr(9) = -28
 R62: sr(9) - sr(10) - xr(10) = -27
 R63: sr(10) - sr(11) - xr(11) = -32
 R64: sr(11) - sr(12) - xr(12) = -27
 R65: sr(12) - sr(13) - xr(13) = -34
 R66: sr(13) - sr(14) - xr(14) = -34
 R67: sr(14) - sr(15) - xr(15) = -35
 R68: sr(15) - sr(16) - xr(16) = -29
 R69: sr(16) - sr(17) - xr(17) = -36
 R70: sr(17) - sr(18) - xr(18) = -26
 R71: sr(18) - sr(19) - xr(19) = -26
 R72: sr(19) - sr(20) - xr(20) = -34
 R73: sr(20) - sr(21) - xr(21) = -19
 R74: sr(21) - sr(22) - xr(22) = -26
 R75: sr(22) - sr(23) - xr(23) = -27
 R76: sr(23) - sr(24) - xr(24) = -29
 R77: sr(24) - sr(25) - xr(25) = -28
 R78: sr(25) - sr(26) - xr(26) = -35
 R79: sr(26) - sr(27) - xr(27) = -25
 R80: sr(27) - sr(28) - xr(28) = -29
 R81: sr(28) - sr(29) - xr(29) = -32
 R82: sr(29) - sr(30) - xr(30) = -25
 R83: sr(30) - sr(31) - xr(31) = -29
 R84: sr(31) - sr(32) - xr(32) = -34
 R85: sr(32) - sr(33) - xr(33) = -33
 R86: sr(33) - sr(34) - xr(34) = -39
 R87: sr(34) - sr(35) - xr(35) = -19
 R88: sr(35) - sr(36) - xr(36) = -26
 R89: sr(36) - sr(37) - xr(37) = -31
 R90: sr(37) - sr(38) - xr(38) = -29
 R91: sr(38) - sr(39) - xr(39) = -32
 R92: sr(39) - sr(40) - xr(40) = -26
 R93: sr(40) - sr(41) - xr(41) = -33
 R94: sr(41) - sr(42) - xr(42) = -33
 R95: sr(42) - sr(43) - xr(43) = -22
 R96: sr(43) - sr(44) - xr(44) = -23
 R97: sr(44) - sr(45) - xr(45) = -24
 R98: sr(45) - sr(46) - xr(46) = -30
 R99: sr(46) - sr(47) - xr(47) = -31
 R100: sr(47) - sr(48) - xr(48) = -28
 R101: sr(48) - sr(49) - xr(49) = -28
 R102: sr(49) - sr(50) - xr(50) = -30
 R103: sr(50) - sr(51) - xr(51) = -31
 R104: xp(0) - 5175 yp(0) <= 0
 R105: xp(1) - 5088 yp(1) <= 0
 R106: xp(2) - 4978 yp(2) <= 0
 R107: xp(3) - 4880 yp(3) <= 0
 R108: xp(4) - 4769 yp(4) <= 0
 R109: xp(5) - 4657 yp(5) <= 0
 R110: xp(6) - 4527 yp(6) <= 0
 R111: xp(7) - 4424 yp(7) <= 0
 R112: xp(8) - 4322 yp(8) <= 0
 R113: xp(9) - 4229 yp(9) <= 0
 R114: xp(10) - 4121 yp(10) <= 0
 R115: xp(11) - 4013 yp(11) <= 0
 R116: xp(12) - 3912 yp(12) <= 0
 R117: xp(13) - 3825 yp(13) <= 0
 R118: xp(14) - 3742 yp(14) <= 0
 R119: xp(15) - 3643 yp(15) <= 0
 R120: xp(16) - 3538 yp(16) <= 0
 R121: xp(17) - 3445 yp(17) <= 0
 R122: xp(18) - 3350 yp(18) <= 0
 R123: xp(19) - 3256 yp(19) <= 0
 R124: xp(20) - 3154 yp(20) <= 0
 R125: xp(21) - 3052 yp(21) <= 0
 R126: xp(22) - 2958 yp(22) <= 0
 R127: xp(23) - 2864 yp(23) <= 0
 R128: xp(24) - 2770 yp(24) <= 0
 R129: xp(25) - 2668 yp(25) <= 0
 R130: xp(26) - 2584 yp(26) <= 0
 R131: xp(27) - 2492 yp(27) <= 0
 R132: xp(28) - 2414 yp(28) <= 0
 R133: xp(29) - 2295 yp(29) <= 0
 R134: xp(30) - 2221 yp(30) <= 0
 R135: xp(31) - 2120 yp(31) <= 0
 R136: xp(32) - 2024 yp(32) <= 0
 R137: xp(33) - 1920 yp(33) <= 0
 R138: xp(34) - 1823 yp(34) <= 0
 R139: xp(35) - 1723 yp(35) <= 0
 R140: xp(36) - 1633 yp(36) <= 0
 R141: xp(37) - 1555 yp(37) <= 0
 R142: xp(38) - 1455 yp(38) <= 0
 R143: xp(39) - 1339 yp(39) <= 0
 R144: xp(40) - 1231 yp(40) <= 0
 R145: xp(41) - 1143 yp(41) <= 0
 R146: xp(42) - 1037 yp(42) <= 0
 R147: xp(43) - 935 yp(43) <= 0
 R148: xp(44) - 819 yp(44) <= 0
 R149: xp(45) - 709 yp(45) <= 0
 R150: xp(46) - 588 yp(46) <= 0
 R151: xp(47) - 488 yp(47) <= 0
 R152: xp(48) - 397 yp(48) <= 0
 R153: xp(49) - 299 yp(49) <= 0
 R154: xp(50) - 209 yp(50) <= 0
 R155: xp(51) - 105 yp(51) <= 0
 R156: xr(0) - 20 yr(0) <= 0
 R157: xr(1) - 40 yr(1) <= 0
 R158: xr(2) - 71 yr(2) <= 0
 R159: xr(3) - 94 yr(3) <= 0
 R160: xr(4) - 116 yr(4) <= 0
 R161: xr(5) - 145 yr(5) <= 0
 R162: xr(6) - 172 yr(6) <= 0
 R163: xr(7) - 202 yr(7) <= 0
 R164: xr(8) - 222 yr(8) <= 0
 R165: xr(9) - 250 yr(9) <= 0
 R166: xr(10) - 277 yr(10) <= 0
 R167: xr(11) - 309 yr(11) <= 0
 R168: xr(12) - 336 yr(12) <= 0
 R169: xr(13) - 370 yr(13) <= 0
 R170: xr(14) - 404 yr(14) <= 0
 R171: xr(15) - 439 yr(15) <= 0
 R172: xr(16) - 468 yr(16) <= 0
 R173: xr(17) - 504 yr(17) <= 0
 R174: xr(18) - 530 yr(18) <= 0
 R175: xr(19) - 556 yr(19) <= 0
 R176: xr(20) - 590 yr(20) <= 0
 R177: xr(21) - 609 yr(21) <= 0
 R178: xr(22) - 635 yr(22) <= 0
 R179: xr(23) - 662 yr(23) <= 0
 R180: xr(24) - 691 yr(24) <= 0
 R181: xr(25) - 719 yr(25) <= 0
 R182: xr(26) - 754 yr(26) <= 0
 R183: xr(27) - 779 yr(27) <= 0
 R184: xr(28) - 808 yr(28) <= 0
 R185: xr(29) - 840 yr(29) <= 0
 R186: xr(30) - 865 yr(30) <= 0
 R187: xr(31) - 894 yr(31) <= 0
 R188: xr(32) - 928 yr(32) <= 0
 R189: xr(33) - 961 yr(33) <= 0
 R190: xr(34) - 1000 yr(34) <= 0
 R191: xr(35) - 1019 yr(35) <= 0
 R192: xr(36) - 1045 yr(36) <= 0
 R193: xr(37) - 1076 yr(37) <= 0
 R194: xr(38) - 1105 yr(38) <= 0
 R195: xr(39) - 1137 yr(39) <= 0
 R196: xr(40) - 1163 yr(40) <= 0
 R197: xr(41) - 1143 yr(41) <= 0
 R198: xr(42) - 1037 yr(42) <= 0
 R199: xr(43) - 935 yr(43) <= 0
 R200: xr(44) - 819 yr(44) <= 0
 R201: xr(45) - 709 yr(45) <= 0
 R202: xr(46) - 588 yr(46) <= 0
 R203: xr(47) - 488 yr(47) <= 0
 R204: xr(48) - 397 yr(48) <= 0
 R205: xr(49) - 299 yr(49) <= 0
 R206: xr(50) - 209 yr(50) <= 0
 R207: xr(51) - 105 yr(51) <= 0
 R208: xp(0) + xr(0) <= 149.2788461538462
 R209: xp(1) + xr(1) <= 149.2788461538462
 R210: xp(2) + xr(2) <= 149.2788461538462
 R211: xp(3) + xr(3) <= 149.2788461538462
 R212: xp(4) + xr(4) <= 149.2788461538462
 R213: xp(5) + xr(5) <= 149.2788461538462
 R214: xp(6) + xr(6) <= 149.2788461538462
 R215: xp(7) + xr(7) <= 149.2788461538462
 R216: xp(8) + xr(8) <= 149.2788461538462
 R217: xp(9) + xr(9) <= 149.2788461538462
 R218: xp(10) + xr(10) <= 149.2788461538462
 R219: xp(11) + xr(11) <= 149.2788461538462
 R220: xp(12) + xr(12) <= 149.2788461538462
 R221: xp(13) + xr(13) <= 149.2788461538462
 R222: xp(14) + xr(14) <= 149.2788461538462
 R223: xp(15) + xr(15) <= 149.2788461538462
 R224: xp(16) + xr(16) <= 149.2788461538462
 R225: xp(17) + xr(17) <= 149.2788461538462
 R226: xp(18) + xr(18) <= 149.2788461538462
 R227: xp(19) + xr(19) <= 149.2788461538462
 R228: xp(20) + xr(20) <= 149.2788461538462
 R229: xp(21) + xr(21) <= 149.2788461538462
 R230: xp(22) + xr(22) <= 149.2788461538462
 R231: xp(23) + xr(23) <= 149.2788461538462
 R232: xp(24) + xr(24) <= 149.2788461538462
 R233: xp(25) + xr(25) <= 149.2788461538462
 R234: xp(26) + xr(26) <= 149.2788461538462
 R235: xp(27) + xr(27) <= 149.2788461538462
 R236: xp(28) + xr(28) <= 149.2788461538462
 R237: xp(29) + xr(29) <= 149.2788461538462
 R238: xp(30) + xr(30) <= 149.2788461538462
 R239: xp(31) + xr(31) <= 149.2788461538462
 R240: xp(32) + xr(32) <= 149.2788461538462
 R241: xp(33) + xr(33) <= 149.2788461538462
 R242: xp(34) + xr(34) <= 149.2788461538462
 R243: xp(35) + xr(35) <= 149.2788461538462
 R244: xp(36) + xr(36) <= 149.2788461538462
 R245: xp(37) + xr(37) <= 149.2788461538462
 R246: xp(38) + xr(38) <= 149.2788461538462
 R247: xp(39) + xr(39) <= 149.2788461538462
 R248: xp(40) + xr(40) <= 149.2788461538462
 R249: xp(41) + xr(41) <= 149.2788461538462
 R250: xp(42) + xr(42) <= 149.2788461538462
 R251: xp(43) + xr(43) <= 149.2788461538462
 R252: xp(44) + xr(44) <= 149.2788461538462
 R253: xp(45) + xr(45) <= 149.2788461538462
 R254: xp(46) + xr(46) <= 149.2788461538462
 R255: xp(47) + xr(47) <= 149.2788461538462
 R256: xp(48) + xr(48) <= 149.2788461538462
 R257: xp(49) + xr(49) <= 149.2788461538462
 R258: xp(50) + xr(50) <= 149.2788461538462
 R259: xp(51) + xr(51) <= 149.2788461538462
Bounds
Binaries
 yp(0) yr(0) yp(1) yr(1) yp(2) yr(2) yp(3) yr(3) yp(4) yr(4) yp(5) yr(5)
 yp(6) yr(6) yp(7) yr(7) yp(8) yr(8) yp(9) yr(9) yp(10) yr(10) yp(11)
 yr(11) yp(12) yr(12) yp(13) yr(13) yp(14) yr(14) yp(15) yr(15) yp(16)
 yr(16) yp(17) yr(17) yp(18) yr(18) yp(19) yr(19) yp(20) yr(20) yp(21)
 yr(21) yp(22) yr(22) yp(23) yr(23) yp(24) yr(24) yp(25) yr(25) yp(26)
 yr(26) yp(27) yr(27) yp(28) yr(28) yp(29) yr(29) yp(30) yr(30) yp(31)
 yr(31) yp(32) yr(32) yp(33) yr(33) yp(34) yr(34) yp(35) yr(35) yp(36)
 yr(36) yp(37) yr(37) yp(38) yr(38) yp(39) yr(39) yp(40) yr(40) yp(41)
 yr(41) yp(42) yr(42) yp(43) yr(43) yp(44) yr(44) yp(45) yr(45) yp(46)
 yr(46) yp(47) yr(47) yp(48) yr(48) yp(49) yr(49) yp(50) yr(50) yp(51)
 yr(51)
End
